p wcnf 192 225 226 
1 -141 -160 0 
1 -28 -11 0 
1 -146 48 0 
1 183 -62 0 
1 58 7 0 
1 -83 -181 0 
1 70 -117 0 
1 33 2 0 
1 181 186 0 
1 -144 -170 0 
1 57 -169 0 
1 136 52 0 
1 -25 -129 0 
1 71 -137 0 
1 31 152 0 
1 -19 -159 0 
1 98 1 0 
1 -15 173 0 
1 99 -5 0 
1 -85 -155 0 
1 -38 -187 0 
1 -160 -64 0 
1 147 -43 0 
1 -162 -168 0 
1 191 -172 0 
1 -10 141 0 
1 -23 -166 0 
1 -53 21 0 
1 156 -40 0 
1 36 59 0 
1 188 -100 0 
1 170 106 0 
1 12 67 0 
1 50 -138 0 
1 76 -132 0 
1 70 -170 0 
1 -127 -133 0 
1 -123 -64 0 
1 67 62 0 
1 -167 -118 0 
1 77 -107 0 
1 -158 -36 0 
1 -126 -127 0 
1 -103 122 0 
1 58 -41 0 
1 -179 -116 0 
1 -71 134 0 
1 -132 -144 0 
1 139 81 0 
1 119 -53 0 
1 -166 -162 0 
1 37 -105 0 
1 -141 77 0 
1 116 146 0 
1 71 -120 0 
1 -178 191 0 
1 -45 -22 0 
1 -92 53 0 
1 -6 159 0 
1 -137 132 0 
1 162 -96 0 
1 5 -93 0 
1 71 105 0 
1 6 -126 0 
1 72 192 0 
1 -121 17 0 
1 128 84 0 
1 15 -139 0 
1 -48 25 0 
1 -130 -164 0 
1 111 28 0 
1 114 60 0 
1 159 155 0 
1 32 -61 0 
1 -81 -102 0 
1 122 -144 0 
1 -90 48 0 
1 -149 -16 0 
1 56 100 0 
1 187 191 0 
1 113 133 0 
1 -175 91 0 
1 47 82 0 
1 -127 -44 0 
1 -19 62 0 
1 63 118 0 
1 113 192 0 
1 152 -10 0 
1 180 175 0 
1 36 -131 0 
1 -45 133 0 
1 73 87 0 
1 115 -12 0 
1 157 -55 0 
1 -127 185 0 
1 -172 -16 0 
1 149 -37 0 
1 119 -23 0 
1 177 -57 0 
1 -112 176 0 
1 53 138 0 
1 148 39 0 
1 -100 143 0 
1 159 9 0 
1 34 55 0 
1 -87 -175 0 
1 158 151 0 
1 -77 85 0 
1 -181 106 0 
1 -4 -75 0 
1 -164 162 0 
1 -105 155 0 
1 -68 186 0 
1 123 -83 0 
1 10 95 0 
1 155 -81 0 
1 132 -34 0 
1 -105 -191 0 
1 141 -124 0 
1 -23 -11 0 
1 -183 116 0 
1 10 25 0 
1 -167 -173 0 
1 -130 -186 0 
1 -69 65 0 
1 -48 -109 0 
1 -38 -101 0 
1 -145 -96 0 
1 -96 -132 0 
1 93 -52 0 
1 -32 67 0 
1 72 103 0 
1 103 -191 0 
1 90 62 0 
1 -66 -40 0 
1 -172 -165 0 
1 144 192 0 
1 50 76 0 
1 62 -158 0 
1 170 72 0 
1 -62 65 0 
1 30 128 0 
1 -4 -91 0 
1 103 -125 0 
1 -165 32 0 
1 22 -94 0 
1 23 108 0 
1 74 63 0 
1 104 124 0 
1 -169 129 0 
1 139 -116 0 
1 -27 61 0 
1 126 -123 0 
1 -128 -96 0 
1 188 -116 0 
1 -133 36 0 
1 -19 -68 0 
1 -139 160 0 
1 118 -28 0 
1 44 43 0 
1 112 79 0 
1 -128 -18 0 
1 61 3 0 
1 -68 25 0 
1 -80 109 0 
1 -49 119 0 
1 138 -153 0 
1 167 94 0 
1 119 -83 0 
1 20 108 0 
1 -8 -110 0 
1 -81 -136 0 
1 -92 181 0 
1 -82 -183 0 
1 123 105 0 
1 77 36 0 
1 -165 56 0 
1 3 -151 0 
1 -164 -128 0 
1 142 -115 0 
1 118 -27 0 
1 -71 30 0 
1 -58 -132 0 
1 -44 80 0 
1 -51 149 0 
1 -185 104 0 
1 -160 -136 0 
1 -95 106 0 
1 -144 153 0 
1 60 4 0 
1 143 -146 0 
1 20 -184 0 
1 83 -52 0 
1 -62 10 0 
1 126 -153 0 
1 116 93 0 
1 -74 -46 0 
1 172 13 0 
1 171 117 0 
1 -118 -89 0 
1 77 -158 0 
1 -44 -75 0 
1 -17 103 0 
1 -45 82 0 
1 172 -160 0 
1 75 19 0 
1 -186 114 0 
1 -184 -159 0 
1 -13 185 0 
1 6 53 0 
1 -64 -170 0 
1 115 92 0 
1 149 -49 0 
1 -14 -40 0 
1 -59 150 0 
1 27 148 0 
1 -64 181 0 
1 -93 16 0 
1 104 -100 0 
1 191 125 0 
1 -56 -134 0 
1 78 4 0 
1 -158 -2 0 
1 26 -13 0 
1 -29 54 0 
